p cnf 38 107
a 19 22 0
e 1 2 3 4 5 6 7 8 9 10 11 12 13 14 15 16 17 18 20 21 23 24 25 26 27 28 29 30 31 32 33 34 35 36 37 38 0
1 2 -3 0
-1 -2 -3 0
1 -2 3 0
-1 2 3 0
-3 -4 -5 0
3 4 -5 0
-3 4 5 0
3 -4 5 0
6 -1 0
6 -5 0
1 5 -6 0
7 5 -8 0
-7 -5 -8 0
7 -5 8 0
-7 5 8 0
9 8 0
9 -3 0
-8 3 -9 0
-10 -9 0
-10 -7 0
9 7 10 0
-12 11 0
-12 7 0
-11 -7 12 0
-13 -10 0
-13 12 0
10 -12 13 0
-6 -13 -14 0
6 13 -14 0
-6 13 14 0
6 -13 14 0
-16 -15 0
-16 -2 0
15 2 16 0
18 -16 0
18 -17 0
16 17 -18 0
20 18 0
20 19 0
-18 -19 -20 0
2 -4 -21 0
-2 4 -21 0
2 4 21 0
-2 -4 21 0
22 21 0
22 -11 0
-21 11 -22 0
-23 -11 0
-23 -22 0
11 22 23 0
-7 23 -24 0
7 -23 -24 0
-7 -23 24 0
7 23 24 0
25 -20 0
25 -24 0
20 24 -25 0
-14 -25 -26 0
14 25 -26 0
-14 25 26 0
14 -25 26 0
28 17 0
28 27 0
-17 -27 -28 0
-29 -7 0
-29 11 0
7 -11 29 0
-30 -28 0
-30 29 0
28 -29 30 0
-31 -7 0
-31 -8 0
7 8 31 0
8 11 -32 0
-8 -11 -32 0
8 -11 32 0
-8 11 32 0
-34 11 0
-34 33 0
-11 -33 34 0
-32 34 -35 0
32 -34 -35 0
-32 -34 35 0
32 34 35 0
31 35 -36 0
-31 -35 -36 0
31 -35 36 0
-31 35 36 0
30 36 -37 0
-30 -36 -37 0
30 -36 37 0
-30 36 37 0
26 -37 -38 0
-26 37 -38 0
26 37 38 0
-26 -37 38 0
-7 6 -19 20 33 0
5 -33 12 0
-21 -17 23 19 9 -11 35 -16 0
6 14 -33 0
-7 3 30 17 -4 -18 0
-37 16 -17 -24 0
11 -22 -7 -21 37 0
22 19 6 0
-5 25 -12 33 0
17 3 14 0
38 0
